NAME : random_19
COMMENT : 40 random nodes
TYPE : TSP
DIMENSION : 40
EDGE_WEIGHT_TYPE : EUC_2D
NODE_COORD_SECTION
1 613 433
2 392 856
3 329 418
4 279 103
5 68 409
6 786 354
7 409 302
8 154 514
9 934 437
10 757 420
11 203 684
12 713 725
13 564 65
14 757 207
15 746 300
16 645 935
17 349 138
18 791 809
19 575 336
20 75 335
21 917 94
22 667 447
23 782 515
24 328 620
25 102 646
26 791 983
27 314 253
28 811 607
29 701 281
30 818 112
31 53 837
32 382 537
33 222 874
34 838 22
35 841 982
36 798 472
37 20 541
38 592 540
39 119 574
40 931 206
EOF